1 100 538
3 5 2 4 5 3 0 4 4 2
2
7 4
0 35.0 35.0 0.0 0.0 0 230
2 41.0 49.0 10.0 10.0 0 204 11 0 0 0 1 0 0 0 0 0 0
3 35.0 17.0 10.0 7.0 0 202 82 1 0 0 0 0 1 1 0 0 1
4 55.0 45.0 10.0 13.0 0 197 23 0 0 0 0 0 1 0 0 0 0
5 55.0 20.0 10.0 19.0 139 169 66 1 0 0 0 0 0 0 1 0 0
6 15.0 30.0 10.0 26.0 0 199 75 0 0 1 1 0 0 0 0 0 0
7 25.0 30.0 10.0 3.0 89 119 46 1 0 0 0 0 0 1 0 0 0
8 20.0 50.0 10.0 5.0 0 198 33 1 1 0 0 0 0 0 0 0 0
9 10.0 43.0 10.0 9.0 85 115 31 1 0 0 0 0 0 0 0 1 0
10 55.0 60.0 10.0 16.0 87 117 16 0 1 1 1 1 0 0 0 0 0
11 30.0 60.0 10.0 16.0 114 144 69 0 0 0 0 0 1 0 0 0 1
12 20.0 65.0 10.0 12.0 57 87 96 0 0 1 0 0 0 1 0 0 0
13 50.0 35.0 10.0 19.0 0 205 53 0 1 0 0 1 0 1 0 0 0
14 30.0 25.0 10.0 23.0 149 179 90 1 1 0 0 0 0 0 0 1 0
15 15.0 10.0 10.0 20.0 0 187 1 0 0 0 0 0 0 0 0 1 0
16 30.0 5.0 10.0 8.0 51 81 86 0 0 0 1 1 0 0 0 1 0
17 10.0 20.0 10.0 19.0 0 190 18 1 0 0 0 1 1 0 1 0 0
18 5.0 30.0 10.0 2.0 147 177 3 0 0 0 0 0 1 0 0 0 0
19 20.0 40.0 10.0 12.0 0 204 80 0 0 0 0 0 1 0 0 0 0
20 15.0 60.0 10.0 17.0 0 187 87 0 1 0 0 0 0 0 0 0 0
21 45.0 65.0 10.0 9.0 0 188 56 0 1 0 0 0 0 0 0 0 0
22 45.0 20.0 10.0 11.0 0 201 0 0 1 1 0 0 0 0 0 0 1
23 45.0 10.0 10.0 18.0 87 117 93 0 0 0 0 0 0 0 0 1 0
24 55.0 5.0 10.0 29.0 58 88 66 1 0 0 0 1 1 0 0 0 0
25 65.0 35.0 10.0 3.0 0 190 80 0 0 0 0 1 0 0 0 0 0
26 65.0 20.0 10.0 6.0 156 186 21 0 0 1 0 1 1 0 0 1 1
27 45.0 30.0 10.0 17.0 0 208 39 0 0 1 0 0 0 0 0 0 0
28 35.0 40.0 10.0 16.0 27 57 43 1 0 1 1 0 0 0 1 0 0
29 41.0 37.0 10.0 16.0 0 213 10 0 1 0 1 0 0 0 0 0 0
30 64.0 42.0 10.0 9.0 0 190 52 0 0 1 0 0 0 0 1 0 0
31 40.0 60.0 10.0 21.0 61 91 50 0 0 0 0 0 0 0 0 0 1
32 31.0 52.0 10.0 27.0 0 202 76 0 0 1 0 0 1 0 0 0 0
33 35.0 69.0 10.0 23.0 0 186 65 0 0 0 0 0 0 0 0 0 1
34 53.0 52.0 10.0 11.0 27 57 65 0 1 0 1 0 0 0 1 0 0
35 65.0 55.0 10.0 14.0 0 183 35 0 1 0 0 0 1 0 0 0 0
36 63.0 65.0 10.0 8.0 133 163 21 0 0 1 0 1 1 1 1 1 0
37 2.0 60.0 10.0 5.0 41 71 99 1 0 0 0 0 0 1 0 1 1
38 20.0 20.0 10.0 8.0 0 198 96 0 0 0 0 0 0 0 0 1 0
39 5.0 5.0 10.0 16.0 73 103 70 1 1 0 0 0 0 1 0 0 1
40 60.0 12.0 10.0 31.0 34 64 50 0 1 0 0 0 1 0 0 0 1
41 40.0 25.0 10.0 9.0 75 105 40 0 0 0 0 0 1 0 0 0 0
42 42.0 7.0 10.0 5.0 87 117 73 0 0 1 0 1 0 0 0 0 0
43 24.0 12.0 10.0 5.0 25 55 75 0 1 0 0 1 0 1 0 0 1
44 23.0 3.0 10.0 7.0 0 185 83 1 0 0 0 0 0 0 0 1 0
45 11.0 14.0 10.0 18.0 59 89 48 0 1 0 0 0 0 0 0 1 0
46 6.0 38.0 10.0 16.0 29 59 92 1 0 0 0 0 0 0 0 0 0
47 2.0 48.0 10.0 1.0 0 184 74 0 0 1 0 0 0 0 0 0 1
48 8.0 56.0 10.0 27.0 0 185 84 0 0 0 0 0 0 0 0 1 0
49 13.0 52.0 10.0 36.0 0 192 39 1 0 1 0 1 0 0 0 0 0
50 6.0 68.0 10.0 30.0 98 128 72 0 0 0 0 0 1 0 1 0 0
51 47.0 47.0 10.0 13.0 0 203 36 1 1 0 0 0 1 0 1 0 1
52 49.0 58.0 10.0 10.0 0 193 12 0 0 0 0 1 1 0 0 1 0
53 27.0 43.0 10.0 9.0 0 208 70 1 1 0 0 0 0 0 0 1 0
54 37.0 31.0 10.0 14.0 85 115 37 0 0 0 1 0 0 1 0 0 0
55 57.0 29.0 10.0 18.0 0 197 47 0 1 0 0 0 0 0 0 1 0
56 63.0 23.0 10.0 2.0 126 156 25 0 0 1 1 0 0 0 0 0 0
57 53.0 12.0 10.0 6.0 120 150 91 0 0 0 0 1 0 0 0 0 0
58 32.0 12.0 10.0 7.0 0 196 22 0 0 0 0 1 0 1 0 0 1
59 36.0 26.0 10.0 18.0 180 210 90 1 1 0 0 1 0 0 0 0 0
60 21.0 24.0 10.0 28.0 0 202 74 0 1 1 0 1 0 0 1 0 1
61 17.0 34.0 10.0 3.0 0 201 18 0 0 0 0 0 0 0 1 0 0
62 12.0 24.0 10.0 13.0 0 194 27 0 0 0 0 0 1 0 0 0 0
63 24.0 58.0 10.0 19.0 48 78 75 0 1 1 0 1 1 0 0 0 0
64 27.0 69.0 10.0 10.0 0 185 39 1 0 0 0 0 1 0 0 0 0
65 15.0 77.0 10.0 9.0 63 93 19 0 0 0 0 0 0 0 0 0 1
66 62.0 77.0 10.0 20.0 49 79 20 0 0 0 0 0 0 0 1 0 0
67 49.0 73.0 10.0 25.0 117 147 18 0 0 1 0 0 1 0 0 1 0
68 67.0 5.0 10.0 25.0 73 103 94 0 0 0 0 0 0 0 0 1 1
69 56.0 39.0 10.0 36.0 132 162 95 0 0 1 0 0 0 0 1 0 0
70 37.0 47.0 10.0 6.0 40 70 91 0 0 0 0 0 1 1 0 0 0
71 37.0 56.0 10.0 5.0 168 198 47 0 0 0 0 1 1 0 0 0 0
72 57.0 68.0 10.0 15.0 0 180 7 0 0 0 0 0 0 0 0 0 1
73 47.0 16.0 10.0 25.0 0 197 64 0 0 0 0 0 0 0 1 0 0
74 44.0 17.0 10.0 9.0 0 199 35 1 0 0 0 0 0 1 1 0 0
75 46.0 13.0 10.0 8.0 139 169 59 0 0 0 0 1 1 0 1 0 0
76 49.0 11.0 10.0 18.0 0 192 19 0 1 0 0 0 1 0 0 0 0
77 49.0 42.0 10.0 13.0 63 93 53 0 0 1 0 0 0 0 0 0 0
78 53.0 43.0 10.0 14.0 169 199 88 0 0 0 0 0 1 0 0 0 0
79 61.0 52.0 10.0 3.0 86 116 0 1 0 1 1 0 0 0 0 0 0
80 57.0 48.0 10.0 23.0 82 112 98 0 0 1 0 0 0 1 0 0 1
81 56.0 37.0 10.0 6.0 168 198 43 0 0 0 0 0 0 1 0 0 0
82 55.0 54.0 10.0 26.0 0 192 1 0 0 1 0 1 0 0 0 0 0
83 15.0 47.0 10.0 16.0 0 196 39 0 1 1 0 0 1 0 0 0 1
84 14.0 37.0 10.0 11.0 0 198 63 0 0 0 0 1 0 0 1 0 0
85 11.0 31.0 10.0 7.0 91 121 54 0 0 1 0 0 0 0 1 1 0
86 16.0 22.0 10.0 41.0 0 196 33 0 0 0 1 0 1 0 1 0 0
87 4.0 18.0 10.0 35.0 0 184 4 0 0 0 0 1 0 0 0 1 0
88 28.0 18.0 10.0 26.0 83 113 77 0 0 0 1 0 0 0 0 0 0
89 26.0 52.0 10.0 9.0 64 94 36 0 1 0 1 0 0 0 0 0 0
90 26.0 35.0 10.0 15.0 0 211 39 0 0 0 1 0 0 0 0 0 0
91 31.0 67.0 10.0 3.0 0 187 5 0 0 0 0 0 0 0 0 0 1
92 15.0 19.0 10.0 1.0 0 194 79 0 0 0 1 0 0 0 0 0 0
93 22.0 22.0 10.0 2.0 18 48 89 0 0 0 1 0 0 1 0 1 0
94 18.0 24.0 10.0 22.0 169 199 61 0 0 1 1 0 0 0 1 0 0
95 26.0 27.0 10.0 27.0 0 207 20 0 0 0 0 0 0 0 0 1 0
96 25.0 24.0 10.0 20.0 0 205 10 0 0 0 0 1 0 0 1 0 1
97 22.0 27.0 10.0 11.0 0 204 79 0 0 0 1 0 0 0 0 0 0
98 25.0 21.0 10.0 12.0 0 202 39 0 0 0 0 0 1 0 0 0 0
99 19.0 21.0 10.0 10.0 0 198 87 1 0 0 0 0 0 0 0 0 0
100 20.0 26.0 10.0 9.0 73 103 55 0 0 0 0 0 1 0 0 0 0
101 18.0 18.0 10.0 17.0 165 195 12 1 1 0 0 0 1 0 0 0 0